c ! encoding i-pc 309
p cnf 827 938
286 -311 0
295 -312 0
287 -313 0
288 -314 0
296 -315 0
294 -316 0
285 -317 0
297 -318 0
299 -319 0
303 -320 0
291 -321 0
302 -322 0
300 -323 0
292 -324 0
283 -325 0
306 -326 0
305 -327 0
281 -328 0
304 -329 0
284 -330 0
307 -331 0
290 -332 0
289 -333 0
293 -334 0
280 -335 0
282 -336 0
301 -337 0
279 -338 0
298 -339 0
340 -341 0
-298 -342 0
344 -345 0
-279 -346 0
348 -349 0
-301 -350 0
352 -353 0
-282 -354 0
356 -357 0
-280 -358 0
360 -361 0
-293 -362 0
364 -365 0
-289 -366 0
368 -369 0
-290 -370 0
372 -373 0
-307 -374 0
376 -377 0
-284 -378 0
380 -381 0
-304 -382 0
384 -385 0
-281 -386 0
388 -389 0
-305 -390 0
392 -393 0
-306 -394 0
396 -397 0
-283 -398 0
400 -401 0
-292 -402 0
404 -405 0
-300 -406 0
408 -409 0
-302 -410 0
412 -413 0
-291 -414 0
416 -417 0
-303 -418 0
420 -421 0
-299 -422 0
424 -425 0
-297 -426 0
428 -429 0
-285 -430 0
432 -433 0
-294 -434 0
436 -437 0
-296 -438 0
440 -441 0
-288 -442 0
444 -445 0
-287 -446 0
448 -449 0
-295 -450 0
452 -453 0
-286 -454 0
-3 -456 0
35 -456 0
3 -457 0
-35 -457 0
456 457 -458 0
458 -459 0
19 -459 0
3 -460 0
35 -460 0
-3 -461 0
-35 -461 0
460 461 -462 0
462 -463 0
-19 -463 0
103 -465 0
81 -466 0
100 -467 0
112 -468 0
102 -469 0
104 -470 0
93 -471 0
96 -472 0
92 -473 0
97 -474 0
87 -475 0
98 -476 0
84 -477 0
101 -478 0
108 -479 0
95 -480 0
91 -481 0
86 -482 0
94 -483 0
99 -484 0
88 -485 0
109 -486 0
105 -487 0
83 -488 0
111 -489 0
85 -490 0
107 -491 0
82 -492 0
89 -493 0
106 -494 0
110 -495 0
496 -497 0
-110 -498 0
500 -501 0
-106 -502 0
504 -505 0
-89 -506 0
508 -509 0
-82 -510 0
512 -513 0
-107 -514 0
516 -517 0
-85 -518 0
520 -521 0
-111 -522 0
524 -525 0
-83 -526 0
528 -529 0
-105 -530 0
532 -533 0
-109 -534 0
536 -537 0
-88 -538 0
540 -541 0
-99 -542 0
544 -545 0
-94 -546 0
548 -549 0
-86 -550 0
552 -553 0
-91 -554 0
556 -557 0
-95 -558 0
560 -561 0
-108 -562 0
564 -565 0
-101 -566 0
568 -569 0
-84 -570 0
572 -573 0
-98 -574 0
576 -577 0
-87 -578 0
580 -581 0
-97 -582 0
584 -585 0
-92 -586 0
588 -589 0
-96 -590 0
592 -593 0
-93 -594 0
596 -597 0
-104 -598 0
600 -601 0
-102 -602 0
604 -605 0
-112 -606 0
608 -609 0
-100 -610 0
612 -613 0
-81 -614 0
616 -617 0
-103 -618 0
-37 -620 0
21 -620 0
37 -621 0
-21 -621 0
620 621 -622 0
622 -623 0
5 -623 0
37 -624 0
21 -624 0
-37 -625 0
-21 -625 0
624 625 -626 0
626 -627 0
-5 -627 0
-46 -629 0
30 -629 0
46 -630 0
-30 -630 0
629 630 -631 0
631 -632 0
14 -632 0
46 -633 0
30 -633 0
-46 -634 0
-30 -634 0
633 634 -635 0
635 -636 0
-14 -636 0
-2 -638 0
34 -638 0
2 -639 0
-34 -639 0
638 639 -640 0
640 -641 0
18 -641 0
2 -642 0
34 -642 0
-2 -643 0
-34 -643 0
642 643 -644 0
644 -645 0
-18 -645 0
-31 -647 0
15 -647 0
31 -648 0
-15 -648 0
647 648 -649 0
649 -650 0
47 -650 0
31 -651 0
15 -651 0
-31 -652 0
-15 -652 0
651 652 -653 0
653 -654 0
-47 -654 0
-38 -656 0
6 -656 0
38 -657 0
-6 -657 0
656 657 -658 0
658 -659 0
22 -659 0
38 -660 0
6 -660 0
-38 -661 0
-6 -661 0
660 661 -662 0
662 -663 0
-22 -663 0
-40 -665 0
24 -665 0
40 -666 0
-24 -666 0
665 666 -667 0
667 -668 0
8 -668 0
40 -669 0
24 -669 0
-40 -670 0
-24 -670 0
669 670 -671 0
671 -672 0
-8 -672 0
-7 -674 0
23 -674 0
7 -675 0
-23 -675 0
674 675 -676 0
676 -677 0
39 -677 0
7 -678 0
23 -678 0
-7 -679 0
-23 -679 0
678 679 -680 0
680 -681 0
-39 -681 0
-32 -683 0
16 -683 0
32 -684 0
-16 -684 0
683 684 -685 0
685 -686 0
48 -686 0
32 -687 0
16 -687 0
-32 -688 0
-16 -688 0
687 688 -689 0
689 -690 0
-48 -690 0
-20 -692 0
4 -692 0
20 -693 0
-4 -693 0
692 693 -694 0
694 -695 0
36 -695 0
20 -696 0
4 -696 0
-20 -697 0
-4 -697 0
696 697 -698 0
698 -699 0
-36 -699 0
-1 -701 0
17 -701 0
1 -702 0
-17 -702 0
701 702 -703 0
703 -704 0
33 -704 0
1 -705 0
17 -705 0
-1 -706 0
-17 -706 0
705 706 -707 0
707 -708 0
-33 -708 0
-26 -710 0
42 -710 0
26 -711 0
-42 -711 0
710 711 -712 0
712 -713 0
10 -713 0
26 -714 0
42 -714 0
-26 -715 0
-42 -715 0
714 715 -716 0
716 -717 0
-10 -717 0
-28 -719 0
44 -719 0
28 -720 0
-44 -720 0
719 720 -721 0
721 -722 0
12 -722 0
28 -723 0
44 -723 0
-28 -724 0
-44 -724 0
723 724 -725 0
725 -726 0
-12 -726 0
-27 -728 0
11 -728 0
27 -729 0
-11 -729 0
728 729 -730 0
730 -731 0
43 -731 0
27 -732 0
11 -732 0
-27 -733 0
-11 -733 0
732 733 -734 0
734 -735 0
-43 -735 0
-41 -737 0
9 -737 0
41 -738 0
-9 -738 0
737 738 -739 0
739 -740 0
25 -740 0
41 -741 0
9 -741 0
-41 -742 0
-9 -742 0
741 742 -743 0
743 -744 0
-25 -744 0
-29 -746 0
45 -746 0
29 -747 0
-45 -747 0
746 747 -748 0
748 -749 0
13 -749 0
29 -750 0
45 -750 0
-29 -751 0
-45 -751 0
750 751 -752 0
752 -753 0
-13 -753 0
464 -755 0
628 -755 0
637 -755 0
646 -755 0
655 -755 0
664 -755 0
673 -755 0
682 -755 0
691 -755 0
700 -755 0
709 -755 0
718 -755 0
727 -755 0
736 -755 0
745 -755 0
754 -755 0
758 -827 0
759 -827 0
760 -827 0
761 -827 0
762 -827 0
763 -827 0
764 -827 0
765 -827 0
766 -827 0
767 -827 0
768 -827 0
769 -827 0
770 -827 0
771 -827 0
772 -827 0
773 -827 0
774 -827 0
775 -827 0
776 -827 0
777 -827 0
778 -827 0
779 -827 0
780 -827 0
781 -827 0
782 -827 0
783 -827 0
784 -827 0
785 -827 0
786 -827 0
787 -827 0
788 -827 0
789 -827 0
790 -827 0
791 -827 0
792 -827 0
793 -827 0
794 -827 0
795 -827 0
796 -827 0
797 -827 0
798 -827 0
799 -827 0
800 -827 0
801 -827 0
802 -827 0
803 -827 0
804 -827 0
805 -827 0
806 -827 0
807 -827 0
808 -827 0
809 -827 0
810 -827 0
811 -827 0
812 -827 0
813 -827 0
814 -827 0
815 -827 0
816 -827 0
817 -827 0
818 -827 0
819 -827 0
820 -827 0
821 -827 0
822 -827 0
823 -827 0
824 -827 0
825 -827 0
826 -827 0
-90 0
113 0
-146 0
-147 0
-148 0
-149 0
-150 0
-151 0
-152 0
-153 0
-154 0
-155 0
-156 0
-157 0
-158 0
-159 0
-160 0
-161 0
-162 0
-163 0
-164 0
-165 0
-166 0
-167 0
-168 0
-169 0
-170 0
-171 0
-172 0
-173 0
-174 0
-175 0
-176 0
-177 0
178 0
-211 0
-212 0
-213 0
-214 0
-215 0
-216 0
-217 0
-218 0
-219 0
-220 0
-221 0
-222 0
-223 0
-224 0
-225 0
-226 0
-227 0
-228 0
-229 0
-230 0
-231 0
-232 0
-233 0
-234 0
-235 0
-236 0
-237 0
-238 0
-239 0
-240 0
-241 0
-242 0
243 0
-276 0
-277 0
-278 0
308 0
-757 827 0
13 753 0
-751 752 0
-750 752 0
-747 748 0
45 747 751 0
-29 747 750 0
-746 748 0
-45 746 750 0
-743 744 0
-742 743 0
-741 743 0
-739 740 0
-738 739 0
-737 739 0
-9 737 741 0
41 737 742 0
-734 735 0
-733 734 0
-732 734 0
-729 730 0
-27 729 732 0
-724 725 0
-723 725 0
-12 722 0
44 720 724 0
-28 720 723 0
-719 721 0
-44 719 723 0
28 719 724 0
-715 716 0
-714 716 0
-10 713 0
-711 712 0
-26 711 714 0
-710 712 0
33 708 0
-706 707 0
-703 704 0
-702 703 0
17 702 706 0
-701 703 0
1 701 706 0
36 699 0
-698 699 0
-696 698 0
-36 695 0
-693 694 0
4 693 697 0
-20 693 696 0
-692 694 0
20 692 697 0
-688 689 0
-687 689 0
-684 685 0
16 684 688 0
-683 685 0
32 683 688 0
-685 686 0
39 681 0
-680 681 0
-679 680 0
-39 677 0
-676 677 0
-675 676 0
23 675 679 0
-7 675 678 0
-674 676 0
-23 674 678 0
7 674 679 0
-671 672 0
-670 671 0
-669 671 0
-8 668 0
-667 668 0
-666 667 0
24 666 670 0
-40 666 669 0
-665 667 0
-24 665 669 0
40 665 670 0
22 663 0
-662 663 0
-661 662 0
-660 662 0
-658 659 0
-657 658 0
-38 657 660 0
-656 658 0
38 656 661 0
-653 654 0
-651 653 0
-649 650 0
-648 649 0
-31 648 651 0
31 647 652 0
18 645 0
-643 644 0
-642 644 0
-640 641 0
-639 640 0
34 639 643 0
-2 639 642 0
9 738 742 0
-638 640 0
-635 636 0
-634 635 0
-633 635 0
6 657 661 0
-631 632 0
-630 631 0
-694 695 0
30 630 634 0
-629 631 0
-30 629 633 0
46 629 634 0
-752 753 0
5 627 0
-748 749 0
-626 627 0
-625 626 0
-624 626 0
-5 623 0
-622 623 0
-621 622 0
21 621 625 0
-37 621 624 0
-620 622 0
-21 620 624 0
-618 619 0
-617 618 0
-615 617 0
-614 615 0
-611 613 0
-15 647 651 0
-610 611 0
-451 453 0
-450 451 0
-449 450 0
-41 738 741 0
-446 447 0
-443 445 0
-442 443 0
37 620 625 0
-439 441 0
-438 439 0
-437 438 0
-33 704 0
-433 434 0
-431 433 0
-430 431 0
-426 427 0
-25 740 0
-425 426 0
42 711 715 0
-525 526 0
-423 425 0
-17 701 705 0
-422 423 0
-419 421 0
-418 419 0
-18 641 0
-417 418 0
-413 414 0
-589 590 0
-411 413 0
-410 411 0
-507 509 0
-46 630 633 0
-409 410 0
-585 586 0
-689 690 0
-407 409 0
-406 407 0
-405 406 0
-403 405 0
-402 403 0
-399 401 0
-398 399 0
25 744 0
11 729 733 0
-1 702 705 0
-529 530 0
-397 398 0
-573 574 0
-414 415 0
-429 430 0
-395 397 0
-394 395 0
-427 429 0
-342 343 0
-569 570 0
-415 417 0
-434 435 0
-391 393 0
-390 391 0
-389 390 0
-577 578 0
-565 566 0
-387 389 0
-385 386 0
-728 730 0
12 726 0
-383 385 0
-393 394 0
-382 383 0
14 636 0
-557 558 0
-435 437 0
43 735 0
-379 381 0
-378 379 0
-522 523 0
-369 370 0
-571 573 0
-518 519 0
-22 659 0
-370 371 0
-553 554 0
-533 534 0
-401 402 0
-537 538 0
-381 382 0
-346 347 0
-501 502 0
47 654 0
-609 610 0
-42 710 714 0
-421 422 0
-48 686 0
-647 649 0
2 638 643 0
-441 442 0
-549 550 0
-350 351 0
-447 449 0
-720 721 0
-4 692 696 0
-545 546 0
-521 522 0
-13 749 0
-755 757 0
-343 345 0
-535 537 0
-377 378 0
-386 387 0
-374 375 0
-341 342 0
-445 446 0
3 456 461 0
-543 545 0
-541 542 0
-345 346 0
-593 594 0
-347 349 0
-531 533 0
-597 598 0
-351 353 0
-499 501 0
-375 377 0
-3 457 460 0
-366 367 0
-353 354 0
-601 602 0
10 717 0
-355 357 0
26 710 715 0
-359 361 0
-357 358 0
-11 728 732 0
-358 359 0
-725 726 0
-605 606 0
-308 341 0
-361 362 0
15 648 652 0
-362 363 0
-354 355 0
-730 731 0
-365 366 0
-367 369 0
-371 373 0
-349 350 0
-19 459 0
-373 374 0
-567 569 0
-14 632 0
-562 563 0
-613 614 0
-598 599 0
-603 605 0
-453 454 0
-363 365 0
-454 455 0
-455 755 0
-678 680 0
-310 311 312 313 314 315 316 317 318 319 320 321 322 323 324 325 326 327 328 329 330 331 332 333 334 335 336 337 338 339 465 466 467 468 469 470 471 472 473 474 475 476 477 478 479 480 481 482 483 484 485 486 487 488 489 490 491 492 493 494 495 0
-35 456 460 0
-456 458 0
-32 684 687 0
-457 458 0
-458 459 0
-460 462 0
27 728 733 0
-461 462 0
-462 463 0
-716 717 0
-34 638 642 0
-16 683 687 0
-47 650 0
-6 656 660 0
-644 645 0
-526 527 0
-113 497 0
-497 498 0
-498 499 0
-575 577 0
-502 503 0
-503 505 0
-505 506 0
-506 507 0
-509 510 0
-510 511 0
-511 513 0
-530 531 0
29 746 751 0
-579 581 0
-513 514 0
-514 515 0
-515 517 0
19 463 0
-517 518 0
-519 521 0
8 672 0
-697 698 0
-652 653 0
-523 525 0
-527 529 0
-534 535 0
-554 555 0
-538 539 0
-539 541 0
238 756 0
-542 543 0
48 690 0
-546 547 0
-561 562 0
-547 549 0
-550 551 0
-551 553 0
-555 557 0
-558 559 0
-559 561 0
-563 565 0
-566 567 0
-581 582 0
-582 583 0
35 457 461 0
-570 571 0
-574 575 0
-43 731 0
-578 579 0
-583 585 0
-586 587 0
-587 589 0
-707 708 0
-590 591 0
-591 593 0
-712 713 0
-595 597 0
-594 595 0
-705 707 0
-599 601 0
-721 722 0
-602 603 0
-606 607 0
-607 609 0
